p tw 156 482
0 1
0 2
0 5
0 6
0 7
0 8
1 2
1 76
1 82
1 87
2 78
2 130
3 4
3 55
3 88
3 89
4 110
4 124
5 6
5 7
5 8
5 72
5 75
5 76
5 77
5 78
5 79
6 7
6 8
6 19
6 73
6 81
6 82
6 83
7 8
7 87
7 98
8 150
9 10
9 25
9 136
9 143
9 144
10 131
10 132
11 12
11 30
11 66
11 112
11 125
11 126
12 40
12 111
13 14
13 15
13 16
13 17
13 66
14 15
14 16
14 17
14 39
14 84
14 123
14 126
14 145
15 16
15 17
15 28
15 29
15 30
16 17
16 86
17 85
17 125
18 19
18 20
18 21
18 22
18 23
18 97
19 20
19 21
19 22
19 23
19 73
19 81
19 82
19 83
20 21
20 22
20 23
20 43
20 44
20 45
21 22
21 23
21 34
21 93
21 94
21 95
21 96
22 23
22 35
22 50
23 31
23 32
23 33
24 25
24 26
24 27
24 137
25 26
25 27
25 136
25 143
25 144
26 27
26 36
26 37
26 38
27 63
27 69
27 133
27 134
27 138
28 29
28 30
28 39
29 30
29 84
29 85
29 86
30 66
30 112
30 125
30 126
31 32
31 33
31 34
31 35
32 33
32 81
32 97
33 50
34 35
34 93
34 94
34 95
34 96
35 50
36 37
36 38
36 134
37 38
37 69
38 51
38 60
38 61
38 62
38 63
39 84
39 123
39 126
39 145
40 41
40 42
40 111
41 42
41 52
41 113
41 117
42 56
42 114
42 116
42 153
43 44
43 45
43 94
44 45
44 93
45 95
45 119
45 139
46 47
46 62
46 80
47 61
47 64
47 65
48 49
48 129
49 57
49 58
51 52
51 53
51 54
51 55
51 56
51 60
51 61
51 62
51 63
52 53
52 54
52 55
52 56
52 113
52 117
53 54
53 55
53 56
53 65
53 70
54 55
54 56
54 115
54 132
54 136
54 137
54 138
55 56
55 88
55 89
56 114
56 116
56 153
57 58
57 129
57 144
57 152
58 59
59 107
59 135
59 147
59 151
59 152
60 61
60 62
60 63
60 70
61 62
61 63
61 64
61 65
62 63
62 80
63 69
63 133
63 134
63 138
64 65
64 80
64 133
65 70
66 112
66 125
66 126
67 68
67 90
67 101
67 147
67 148
68 92
68 102
68 135
69 133
69 134
69 138
71 72
71 73
71 74
71 127
72 73
72 74
72 75
72 76
72 77
72 78
72 79
73 74
73 81
73 82
73 83
74 128
75 76
75 77
75 78
75 79
75 127
75 128
76 77
76 78
76 79
76 82
76 87
77 78
77 79
77 131
77 143
77 150
78 79
78 130
79 91
79 100
79 107
79 108
79 109
80 133
81 82
81 83
81 97
82 83
82 87
83 96
83 98
83 121
83 140
83 155
84 85
84 86
84 123
84 126
84 145
85 86
85 125
87 98
88 89
88 106
88 110
88 111
88 112
88 113
88 114
89 124
90 91
90 92
90 101
90 147
90 148
91 92
91 100
91 107
91 108
91 109
92 102
92 135
93 94
93 95
93 96
94 95
94 96
95 96
95 119
95 139
96 98
96 121
96 140
96 155
98 121
98 140
98 155
99 100
99 101
99 102
99 151
100 101
100 102
100 107
100 108
100 109
101 102
101 147
101 148
102 135
103 104
103 105
103 106
103 118
103 119
103 120
103 121
104 105
104 106
104 154
104 155
105 106
105 153
106 110
106 111
106 112
106 113
106 114
107 108
107 109
107 135
107 147
107 151
107 152
108 109
108 148
109 130
110 111
110 112
110 113
110 114
110 124
111 112
111 113
111 114
112 113
112 114
112 125
112 126
113 114
113 117
114 116
114 153
115 116
115 117
115 132
115 136
115 137
115 138
116 117
116 153
118 119
118 120
118 121
118 141
118 145
118 146
119 120
119 121
119 139
120 121
120 154
121 140
121 155
122 123
122 146
122 149
123 126
123 145
125 126
126 145
127 128
129 144
129 152
131 132
131 143
131 150
132 136
132 137
132 138
133 134
133 138
134 138
135 147
135 151
135 152
136 137
136 138
136 143
136 144
137 138
139 140
140 155
141 142
141 145
141 146
142 149
143 144
143 150
144 152
145 146
146 149
147 148
147 151
147 152
151 152
154 155
